100
29 4
42 0
32 1
7 4
31 1
5 4
19 3
35 4
15 2
12 1
6 3
30 4
11 0
33 3
0 4
6 0
31 4
12 4
38 4
7 3
26 0
25 0
25 3
39 4
43 2
2 4
30 2
14 3
24 0
2 2
20 0
13 0
40 4
6 2
0 1
19 4
25 4
43 3
21 0
1 4
34 2
15 1
43 0
36 4
7 0
26 1
23 4
37 4
28 4
9 1
8 1
34 0
18 4
44 4
24 4
18 3
44 3
14 0
42 2
33 2
1 3
33 4
4 4
14 4
23 0
2 0
42 4
15 3
1 0
11 2
41 4
32 4
9 0
22 0
10 0
0 0
8 4
35 0
5 1
12 0
13 1
29 1
39 0
20 1
15 0
41 1
43 1
9 4
22 2
2 3
15 4
30 0
20 4
36 0
27 3
36 3
1 1
27 0
39 3
3 0

